NAME : sim49.75828.tour
COMMENT : Length = 75828
COMMENT : Found by LKH [Keld Helsgaun] Fri Sep 14 16:54:20 2018
TYPE : TOUR
DIMENSION : 49
TOUR_SECTION
1
33
7
21
30
26
38
37
34
28
32
3
27
14
9
4
10
20
5
47
24
41
15
13
40
16
22
35
48
29
49
39
31
8
19
2
18
45
17
6
11
25
46
43
23
12
44
42
36
-1
EOF
